c format kmax_kconfig_v2
c kconfig_variable 1 c1 bool
c kconfig_variable 2 c2 bool
c kconfig_variable 3 c3 bool
c kconfig_variable 4 c4 bool
c kconfig_variable 5 c5 bool
c kconfig_variable 6 c6 string empty
p cnf 6 3
1 0
3 0
6 0